
Gurobi 11.0.1 (win64) logging started Mon Mar 18 07:28:19 2024

Set parameter LogFile to value "res/logfile/co-100log.txt"
Gurobi Optimizer version 11.0.1 build v11.0.1rc0 (win64 - Windows 11.0 (22621.2))

CPU model: AMD Ryzen Threadripper PRO 5975WX 32-Cores, instruction set [SSE2|AVX|AVX2]
Thread count: 32 physical cores, 64 logical processors, using up to 10 threads

Optimize a model with 1714733 rows, 48417 columns and 5748919 nonzeros
Model fingerprint: 0x68f2eef0
Variable types: 0 continuous, 48417 integer (48417 binary)
Coefficient statistics:
  Matrix range     [1e+00, 2e+04]
  Objective range  [4e+01, 8e+06]
  Bounds range     [1e+00, 1e+00]
  RHS range        [1e+00, 4e+01]
Presolve removed 1712674 rows and 601 columns
Presolve time: 0.56s
Presolved: 2059 rows, 47816 columns, 1832698 nonzeros
Crushed 74948 out of 1712373 user cuts to presolved model
Variable types: 0 continuous, 47816 integer (47816 binary)
Found heuristic solution: objective 1.300082e+07
Deterministic concurrent LP optimizer: primal and dual simplex
Showing primal log only...

Concurrent spin time: 0.01s

Solved with dual simplex

Root simplex log...

Iteration    Objective       Primal Inf.    Dual Inf.      Time
    1128    1.0093014e+06   0.000000e+00   0.000000e+00    602s
Extra simplex iterations after uncrush: 14

Root relaxation: objective 1.009301e+06, 1128 iterations, 0.20 seconds (0.37 work units)
Total elapsed time = 601.83s (DegenMoves)

    Nodes    |    Current Node    |     Objective Bounds      |     Work
 Expl Unexpl |  Obj  Depth IntInf | Incumbent    BestBd   Gap | It/Node Time

     0     0 1009301.41    0  282 1.3001e+07 1009301.41  92.2%     -  602s
H    0     0                    9500612.0500 1009301.41  89.4%     -  602s
H    0     0                    8324957.3700 1009301.41  87.9%     -  602s
H    0     0                    6187883.0500 1009301.41  83.7%     -  603s
H    0     0                    4866336.9800 1009301.41  79.3%     -  603s
     0     0 1040453.17    0  518 4866336.98 1040453.17  78.6%     -  604s
H    0     0                    4852111.8800 1040453.17  78.6%     -  604s
     0     0 1491116.38    0  569 4852111.88 1491116.38  69.3%     -  605s
     0     0 1531521.66    0  579 4852111.88 1531521.66  68.4%     -  606s
H    0     0                    2670715.0200 1531521.66  42.7%     -  606s
     0     0 1572341.84    0  587 2670715.02 1572341.84  41.1%     -  606s
     0     0 1583566.21    0  593 2670715.02 1583566.21  40.7%     -  607s
     0     0 1590376.64    0  592 2670715.02 1590376.64  40.5%     -  607s
     0     0 1593657.23    0  602 2670715.02 1593657.23  40.3%     -  607s
     0     0 1593657.23    0  603 2670715.02 1593657.23  40.3%     -  607s
H    0     0                    2656242.8900 1630358.19  38.6%     -  608s
     0     0 1793999.37    0  697 2656242.89 1793999.37  32.5%     -  609s
     0     0 1793999.37    0  700 2656242.89 1793999.37  32.5%     -  609s
     0     0 1793999.37    0  702 2656242.89 1793999.37  32.5%     -  609s
     0     0 1793999.37    0  704 2656242.89 1793999.37  32.5%     -  609s
     0     0 1793999.37    0  704 2656242.89 1793999.37  32.5%     -  609s
     0     0 1793999.37    0  705 2656242.89 1793999.37  32.5%     -  609s
     0     0 1793999.37    0  704 2656242.89 1793999.37  32.5%     -  609s
     0     0 1793999.37    0  706 2656242.89 1793999.37  32.5%     -  609s
     0     0 1793999.37    0  706 2656242.89 1793999.37  32.5%     -  609s
     0     0 1793999.37    0  693 2656242.89 1793999.37  32.5%     -  609s
H    0     0                    2653482.8900 1793999.37  32.4%     -  609s
H    0     0                    2640298.7800 1793999.37  32.1%     -  609s
     0     0 2497220.68    0  717 2640298.78 2497220.68  5.42%     -  611s
     0     0 2500710.84    0  790 2640298.78 2500710.84  5.29%     -  612s
     0     0 2501599.27    0  749 2640298.78 2501599.27  5.25%     -  613s
     0     0 2501599.27    0  749 2640298.78 2501599.27  5.25%     -  613s
     0     0 2501599.27    0  754 2640298.78 2501599.27  5.25%     -  613s
     0     0 2501599.27    0  752 2640298.78 2501599.27  5.25%     -  613s
     0     0 2501599.27    0  753 2640298.78 2501599.27  5.25%     -  613s
     0     0 2501599.27    0  754 2640298.78 2501599.27  5.25%     -  613s
     0     0 2501599.27    0  757 2640298.78 2501599.27  5.25%     -  613s
     0     0 2501599.27    0  752 2640298.78 2501599.27  5.25%     -  613s
     0     0 2503040.89    0  797 2640298.78 2503040.89  5.20%     -  613s
     0     0 2504497.26    0  831 2640298.78 2504497.26  5.14%     -  614s
     0     0 2504497.26    0  844 2640298.78 2504497.26  5.14%     -  614s
     0     0 2504497.26    0  845 2640298.78 2504497.26  5.14%     -  614s
     0     0 2504497.26    0  853 2640298.78 2504497.26  5.14%     -  615s
     0     0 2504497.26    0  858 2640298.78 2504497.26  5.14%     -  615s
     0     0 2504497.26    0  862 2640298.78 2504497.26  5.14%     -  615s
     0     0 2504497.26    0  858 2640298.78 2504497.26  5.14%     -  615s
     0     0 2504497.26    0  858 2640298.78 2504497.26  5.14%     -  615s
     0     0 2504497.26    0  859 2640298.78 2504497.26  5.14%     -  615s
     0     0 2504497.26    0  861 2640298.78 2504497.26  5.14%     -  615s
     0     0 2504497.26    0  860 2640298.78 2504497.26  5.14%     -  615s
H    0     0                    2639982.0700 2504497.26  5.13%     -  615s
     0     0 2505122.35    0  904 2639982.07 2505122.35  5.11%     -  615s
     0     0 2505122.35    0  897 2639982.07 2505122.35  5.11%     -  615s
     0     0 2505122.35    0  894 2639982.07 2505122.35  5.11%     -  615s
     0     0 2505122.35    0  892 2639982.07 2505122.35  5.11%     -  615s
     0     0 2505683.86    0  864 2639982.07 2505683.86  5.09%     -  616s
     0     0 2506029.91    0  887 2639982.07 2506029.91  5.07%     -  616s
     0     0 2506253.82    0  893 2639982.07 2506253.82  5.07%     -  616s
     0     0 2511371.72    0  547 2639982.07 2511371.72  4.87%     -  622s
     0     0 2511371.72    0  546 2639982.07 2511371.72  4.87%     -  622s
     0     0 2511371.72    0  553 2639982.07 2511371.72  4.87%     -  622s
     0     0 2511371.72    0  550 2639982.07 2511371.72  4.87%     -  622s
     0     0 2511371.72    0  542 2639982.07 2511371.72  4.87%     -  622s
     0     0 2511371.72    0  541 2639982.07 2511371.72  4.87%     -  622s
     0     0 2511371.72    0  540 2639982.07 2511371.72  4.87%     -  622s
     0     0 2511371.72    0  541 2639982.07 2511371.72  4.87%     -  622s
     0     0 2511371.72    0  540 2639982.07 2511371.72  4.87%     -  622s
     0     0 2511371.72    0  541 2639982.07 2511371.72  4.87%     -  622s
     0     0 2511371.72    0  541 2639982.07 2511371.72  4.87%     -  622s
     0     0 2513473.49    0  526 2639982.07 2513473.49  4.79%     -  623s
     0     2 2513473.49    0  526 2639982.07 2513473.49  4.79%     -  624s
     1     4 2513473.49    1  547 2639982.07 2513473.49  4.79%  1213  625s
H   34    33                    2639944.9600 2513473.49  4.79%   356  627s
H   38    33                    2639942.0600 2513473.49  4.79%   333  627s
   598   321 2632297.40   50   84 2639942.06 2513473.49  4.79%  65.6  630s
  2333  1267     cutoff   56      2639942.06 2597753.98  1.60%  31.0  635s
  4686  2084 infeasible   22      2639942.06 2612506.09  1.04%  25.8  640s
  6972  2660     cutoff   23      2639942.06 2617762.51  0.84%  24.9  645s
  9148  2889     cutoff   31      2639942.06 2621832.03  0.69%  25.9  650s
 10890  2842 2638974.65   31   48 2639942.06 2625368.06  0.55%  26.7  655s
 12929  2415 2639175.40   26  125 2639942.06 2629611.96  0.39%  27.7  660s
 14737  1636     cutoff   27      2639942.06 2632903.02  0.27%  27.7  665s
 16928   442 2639127.56   36   40 2639942.06 2636935.27  0.11%  26.9  670s

Cutting planes:
  Cover: 774
  Clique: 178
  MIR: 50
  StrongCG: 17
  GUB cover: 106
  Inf proof: 3
  Zero half: 37
  BQP: 2

Explored 18708 nodes (488694 simplex iterations) in 672.05 seconds (80.25 work units)
Thread count was 10 (of 64 available processors)

Solution count 10: 2.63994e+06 2.63994e+06 2.63998e+06 ... 6.18788e+06

Optimal solution found (tolerance 1.00e-04)
Best objective 2.639942060000e+06, best bound 2.639942060000e+06, gap 0.0000%

User-callback calls 39708, time in user-callback 0.02 sec
